TYPE : Vertex Cover
DIMENSION: 28
EDGE_DATA_SECTION:
0 9
0 21
1 5
1 13
1 27
2 11
2 19
3 15
3 16
3 19
3 20
3 24
3 27
4 5
4 8
4 25
4 26
5 11
5 14
7 16
7 18
8 9
8 22
8 23
9 21
10 21
10 24
11 13
11 15
12 18
12 21
13 22
14 24
15 22
15 23
15 25
16 19
16 25
17 24
17 27
18 26
19 21
20 24
20 27
21 23
24 26
25 26
26 27
-1
VERTEX_DEGREE:
2.0 3.0 2.0 6.0 4.0 4.0 0.0 2.0 4.0 3.0 2.0 4.0 2.0 3.0 2.0 5.0 4.0 2.0 3.0 4.0 3.0 6.0 3.0 3.0 6.0 4.0 5.0 5.0
VERTEX_COVER:
2 3 4 5 8 9 13 15 16 18 21 24 25 27
EOF
